// Objective function               
min: 775x1+800x2+800x3+800x4+800x5+775x6+750x7;
// Constraints                      
0x1+1x2+1x3+1x4+1x5+1x6+0x7>=18;
0x1+0x2+1x3+1x4+1x5+1x6+1x7>=27;
1x1+0x2+0x3+1x4+1x5+1x6+1x7>=22;
1x1+1x2+0x3+0x4+1x5+1x6+1x7>=26;
1x1+1x2+1x3+0x4+0x5+1x6+1x7>=25;
1x1+1x2+1x3+1x4+0x5+0x6+1x7>=21;
1x1+1x2+1x3+1x4+1x5+0x6+0x7>=19;
